NAME           C:\Bruker\Hvattum\knapsack\Problems\class1\100-5-18.mps
ROWS
 N  OBJ
 L  CONSTR1
 L  CONSTR2
 L  CONSTR3
 L  CONSTR4
 L  CONSTR5
COLUMNS
    INT0001   'MARKER'  'INTORG'
    X1        OBJ       630
    X1        CONSTR1   339
    X1        CONSTR2   492
    X1        CONSTR3   739
    X1        CONSTR4   925
    X1        CONSTR5   645
    X2        OBJ       613
    X2        CONSTR1   171
    X2        CONSTR2   726
    X2        CONSTR3   88
    X2        CONSTR4   919
    X2        CONSTR5   909
    X3        OBJ       786
    X3        CONSTR1   913
    X3        CONSTR2   75
    X3        CONSTR3   247
    X3        CONSTR4   818
    X3        CONSTR5   138
    X4        OBJ       805
    X4        CONSTR1   136
    X4        CONSTR2   329
    X4        CONSTR3   806
    X4        CONSTR4   565
    X4        CONSTR5   76
    X5        OBJ       611
    X5        CONSTR1   934
    X5        CONSTR2   663
    X5        CONSTR3   566
    X5        CONSTR4   130
    X5        CONSTR5   343
    X6        OBJ       826
    X6        CONSTR1   822
    X6        CONSTR2   473
    X6        CONSTR3   29
    X6        CONSTR4   440
    X6        CONSTR5   115
    X7        OBJ       753
    X7        CONSTR1   629
    X7        CONSTR2   747
    X7        CONSTR3   209
    X7        CONSTR4   851
    X7        CONSTR5   231
    X8        OBJ       979
    X8        CONSTR1   384
    X8        CONSTR2   823
    X8        CONSTR3   535
    X8        CONSTR4   979
    X8        CONSTR5   301
    X9        OBJ       701
    X9        CONSTR1   134
    X9        CONSTR2   239
    X9        CONSTR3   8
    X9        CONSTR4   903
    X9        CONSTR5   339
    X10       OBJ       597
    X10       CONSTR1   550
    X10       CONSTR2   121
    X10       CONSTR3   245
    X10       CONSTR4   855
    X10       CONSTR5   607
    X11       OBJ       751
    X11       CONSTR1   34
    X11       CONSTR2   75
    X11       CONSTR3   175
    X11       CONSTR4   930
    X11       CONSTR5   970
    X12       OBJ       693
    X12       CONSTR1   615
    X12       CONSTR2   442
    X12       CONSTR3   190
    X12       CONSTR4   810
    X12       CONSTR5   814
    X13       OBJ       812
    X13       CONSTR1   810
    X13       CONSTR2   197
    X13       CONSTR3   381
    X13       CONSTR4   543
    X13       CONSTR5   65
    X14       OBJ       619
    X14       CONSTR1   667
    X14       CONSTR2   331
    X14       CONSTR3   911
    X14       CONSTR4   222
    X14       CONSTR5   252
    X15       OBJ       810
    X15       CONSTR1   855
    X15       CONSTR2   771
    X15       CONSTR3   404
    X15       CONSTR4   670
    X15       CONSTR5   605
    X16       OBJ       460
    X16       CONSTR1   176
    X16       CONSTR2   390
    X16       CONSTR3   918
    X16       CONSTR4   407
    X16       CONSTR5   219
    X17       OBJ       1000
    X17       CONSTR1   482
    X17       CONSTR2   763
    X17       CONSTR3   873
    X17       CONSTR4   154
    X17       CONSTR5   430
    X18       OBJ       972
    X18       CONSTR1   658
    X18       CONSTR2   420
    X18       CONSTR3   61
    X18       CONSTR4   536
    X18       CONSTR5   945
    X19       OBJ       878
    X19       CONSTR1   514
    X19       CONSTR2   512
    X19       CONSTR3   770
    X19       CONSTR4   971
    X19       CONSTR5   984
    X20       OBJ       906
    X20       CONSTR1   643
    X20       CONSTR2   899
    X20       CONSTR3   739
    X20       CONSTR4   148
    X20       CONSTR5   425
    X21       OBJ       447
    X21       CONSTR1   351
    X21       CONSTR2   441
    X21       CONSTR3   55
    X21       CONSTR4   650
    X21       CONSTR5   274
    X22       OBJ       827
    X22       CONSTR1   476
    X22       CONSTR2   803
    X22       CONSTR3   118
    X22       CONSTR4   600
    X22       CONSTR5   716
    X23       OBJ       894
    X23       CONSTR1   699
    X23       CONSTR2   693
    X23       CONSTR3   687
    X23       CONSTR4   548
    X23       CONSTR5   594
    X24       OBJ       984
    X24       CONSTR1   862
    X24       CONSTR2   313
    X24       CONSTR3   907
    X24       CONSTR4   324
    X24       CONSTR5   425
    X25       OBJ       898
    X25       CONSTR1   759
    X25       CONSTR2   2
    X25       CONSTR3   554
    X25       CONSTR4   125
    X25       CONSTR5   898
    X26       OBJ       687
    X26       CONSTR1   704
    X26       CONSTR2   870
    X26       CONSTR3   244
    X26       CONSTR4   43
    X26       CONSTR5   36
    X27       OBJ       816
    X27       CONSTR1   839
    X27       CONSTR2   193
    X27       CONSTR3   358
    X27       CONSTR4   960
    X27       CONSTR5   565
    X28       OBJ       843
    X28       CONSTR1   322
    X28       CONSTR2   799
    X28       CONSTR3   255
    X28       CONSTR4   629
    X28       CONSTR5   788
    X29       OBJ       712
    X29       CONSTR1   778
    X29       CONSTR2   253
    X29       CONSTR3   483
    X29       CONSTR4   279
    X29       CONSTR5   109
    X30       OBJ       945
    X30       CONSTR1   160
    X30       CONSTR2   733
    X30       CONSTR3   618
    X30       CONSTR4   230
    X30       CONSTR5   888
    X31       OBJ       985
    X31       CONSTR1   218
    X31       CONSTR2   709
    X31       CONSTR3   626
    X31       CONSTR4   854
    X31       CONSTR5   612
    X32       OBJ       1237
    X32       CONSTR1   969
    X32       CONSTR2   891
    X32       CONSTR3   789
    X32       CONSTR4   496
    X32       CONSTR5   571
    X33       OBJ       1125
    X33       CONSTR1   261
    X33       CONSTR2   637
    X33       CONSTR3   990
    X33       CONSTR4   757
    X33       CONSTR5   921
    X34       OBJ       703
    X34       CONSTR1   268
    X34       CONSTR2   161
    X34       CONSTR3   523
    X34       CONSTR4   854
    X34       CONSTR5   411
    X35       OBJ       916
    X35       CONSTR1   105
    X35       CONSTR2   657
    X35       CONSTR3   547
    X35       CONSTR4   968
    X35       CONSTR5   733
    X36       OBJ       475
    X36       CONSTR1   360
    X36       CONSTR2   817
    X36       CONSTR3   771
    X36       CONSTR4   258
    X36       CONSTR5   155
    X37       OBJ       735
    X37       CONSTR1   889
    X37       CONSTR2   487
    X37       CONSTR3   205
    X37       CONSTR4   809
    X37       CONSTR5   396
    X38       OBJ       852
    X38       CONSTR1   121
    X38       CONSTR2   987
    X38       CONSTR3   818
    X38       CONSTR4   500
    X38       CONSTR5   213
    X39       OBJ       833
    X39       CONSTR1   172
    X39       CONSTR2   851
    X39       CONSTR3   670
    X39       CONSTR4   993
    X39       CONSTR5   486
    X40       OBJ       486
    X40       CONSTR1   393
    X40       CONSTR2   565
    X40       CONSTR3   531
    X40       CONSTR4   56
    X40       CONSTR5   275
    X41       OBJ       957
    X41       CONSTR1   395
    X41       CONSTR2   607
    X41       CONSTR3   169
    X41       CONSTR4   905
    X41       CONSTR5   330
    X42       OBJ       500
    X42       CONSTR1   39
    X42       CONSTR2   84
    X42       CONSTR3   365
    X42       CONSTR4   397
    X42       CONSTR5   104
    X43       OBJ       893
    X43       CONSTR1   415
    X43       CONSTR2   215
    X43       CONSTR3   310
    X43       CONSTR4   453
    X43       CONSTR5   593
    X44       OBJ       779
    X44       CONSTR1   981
    X44       CONSTR2   486
    X44       CONSTR3   282
    X44       CONSTR4   805
    X44       CONSTR5   870
    X45       OBJ       683
    X45       CONSTR1   129
    X45       CONSTR2   842
    X45       CONSTR3   213
    X45       CONSTR4   222
    X45       CONSTR5   121
    X46       OBJ       708
    X46       CONSTR1   292
    X46       CONSTR2   872
    X46       CONSTR3   49
    X46       CONSTR4   154
    X46       CONSTR5   879
    X47       OBJ       729
    X47       CONSTR1   154
    X47       CONSTR2   845
    X47       CONSTR3   93
    X47       CONSTR4   933
    X47       CONSTR5   79
    X48       OBJ       761
    X48       CONSTR1   451
    X48       CONSTR2   32
    X48       CONSTR3   271
    X48       CONSTR4   515
    X48       CONSTR5   670
    X49       OBJ       566
    X49       CONSTR1   834
    X49       CONSTR2   608
    X49       CONSTR3   25
    X49       CONSTR4   277
    X49       CONSTR5   877
    X50       OBJ       498
    X50       CONSTR1   228
    X50       CONSTR2   9
    X50       CONSTR3   756
    X50       CONSTR4   973
    X50       CONSTR5   334
    X51       OBJ       926
    X51       CONSTR1   502
    X51       CONSTR2   142
    X51       CONSTR3   201
    X51       CONSTR4   967
    X51       CONSTR5   526
    X52       OBJ       657
    X52       CONSTR1   499
    X52       CONSTR2   920
    X52       CONSTR3   235
    X52       CONSTR4   346
    X52       CONSTR5   750
    X53       OBJ       832
    X53       CONSTR1   466
    X53       CONSTR2   1
    X53       CONSTR3   735
    X53       CONSTR4   384
    X53       CONSTR5   589
    X54       OBJ       938
    X54       CONSTR1   774
    X54       CONSTR2   141
    X54       CONSTR3   860
    X54       CONSTR4   902
    X54       CONSTR5   193
    X55       OBJ       890
    X55       CONSTR1   390
    X55       CONSTR2   316
    X55       CONSTR3   318
    X55       CONSTR4   856
    X55       CONSTR5   746
    X56       OBJ       550
    X56       CONSTR1   610
    X56       CONSTR2   662
    X56       CONSTR3   100
    X56       CONSTR4   316
    X56       CONSTR5   174
    X57       OBJ       654
    X57       CONSTR1   120
    X57       CONSTR2   29
    X57       CONSTR3   566
    X57       CONSTR4   434
    X57       CONSTR5   882
    X58       OBJ       796
    X58       CONSTR1   117
    X58       CONSTR2   350
    X58       CONSTR3   187
    X58       CONSTR4   656
    X58       CONSTR5   630
    X59       OBJ       1123
    X59       CONSTR1   711
    X59       CONSTR2   684
    X59       CONSTR3   847
    X59       CONSTR4   457
    X59       CONSTR5   516
    X60       OBJ       553
    X60       CONSTR1   811
    X60       CONSTR2   980
    X60       CONSTR3   449
    X60       CONSTR4   116
    X60       CONSTR5   157
    X61       OBJ       634
    X61       CONSTR1   480
    X61       CONSTR2   225
    X61       CONSTR3   922
    X61       CONSTR4   532
    X61       CONSTR5   779
    X62       OBJ       872
    X62       CONSTR1   979
    X62       CONSTR2   61
    X62       CONSTR3   15
    X62       CONSTR4   687
    X62       CONSTR5   538
    X63       OBJ       1029
    X63       CONSTR1   440
    X63       CONSTR2   292
    X63       CONSTR3   373
    X63       CONSTR4   722
    X63       CONSTR5   998
    X64       OBJ       1021
    X64       CONSTR1   801
    X64       CONSTR2   416
    X64       CONSTR3   982
    X64       CONSTR4   426
    X64       CONSTR5   992
    X65       OBJ       940
    X65       CONSTR1   863
    X65       CONSTR2   877
    X65       CONSTR3   56
    X65       CONSTR4   762
    X65       CONSTR5   466
    X66       OBJ       781
    X66       CONSTR1   973
    X66       CONSTR2   159
    X66       CONSTR3   475
    X66       CONSTR4   262
    X66       CONSTR5   397
    X67       OBJ       756
    X67       CONSTR1   191
    X67       CONSTR2   669
    X67       CONSTR3   443
    X67       CONSTR4   617
    X67       CONSTR5   82
    X68       OBJ       1098
    X68       CONSTR1   703
    X68       CONSTR2   891
    X68       CONSTR3   805
    X68       CONSTR4   320
    X68       CONSTR5   645
    X69       OBJ       808
    X69       CONSTR1   443
    X69       CONSTR2   134
    X69       CONSTR3   138
    X69       CONSTR4   437
    X69       CONSTR5   540
    X70       OBJ       841
    X70       CONSTR1   470
    X70       CONSTR2   83
    X70       CONSTR3   824
    X70       CONSTR4   34
    X70       CONSTR5   317
    X71       OBJ       568
    X71       CONSTR1   113
    X71       CONSTR2   615
    X71       CONSTR3   86
    X71       CONSTR4   960
    X71       CONSTR5   301
    X72       OBJ       320
    X72       CONSTR1   268
    X72       CONSTR2   71
    X72       CONSTR3   264
    X72       CONSTR4   1
    X72       CONSTR5   86
    X73       OBJ       990
    X73       CONSTR1   310
    X73       CONSTR2   364
    X73       CONSTR3   784
    X73       CONSTR4   822
    X73       CONSTR5   538
    X74       OBJ       225
    X74       CONSTR1   245
    X74       CONSTR2   232
    X74       CONSTR3   97
    X74       CONSTR4   209
    X74       CONSTR5   2
    X75       OBJ       724
    X75       CONSTR1   687
    X75       CONSTR2   782
    X75       CONSTR3   512
    X75       CONSTR4   306
    X75       CONSTR5   247
    X76       OBJ       354
    X76       CONSTR1   223
    X76       CONSTR2   595
    X76       CONSTR3   505
    X76       CONSTR4   94
    X76       CONSTR5   302
    X77       OBJ       898
    X77       CONSTR1   910
    X77       CONSTR2   802
    X77       CONSTR3   224
    X77       CONSTR4   1000
    X77       CONSTR5   58
    X78       OBJ       842
    X78       CONSTR1   758
    X78       CONSTR2   929
    X78       CONSTR3   249
    X78       CONSTR4   664
    X78       CONSTR5   22
    X79       OBJ       435
    X79       CONSTR1   137
    X79       CONSTR2   393
    X79       CONSTR3   663
    X79       CONSTR4   452
    X79       CONSTR5   247
    X80       OBJ       745
    X80       CONSTR1   383
    X80       CONSTR2   254
    X80       CONSTR3   637
    X80       CONSTR4   480
    X80       CONSTR5   717
    X81       OBJ       1039
    X81       CONSTR1   725
    X81       CONSTR2   409
    X81       CONSTR3   443
    X81       CONSTR4   594
    X81       CONSTR5   773
    X82       OBJ       600
    X82       CONSTR1   290
    X82       CONSTR2   605
    X82       CONSTR3   44
    X82       CONSTR4   278
    X82       CONSTR5   995
    X83       OBJ       834
    X83       CONSTR1   4
    X83       CONSTR2   453
    X83       CONSTR3   280
    X83       CONSTR4   331
    X83       CONSTR5   673
    X84       OBJ       892
    X84       CONSTR1   31
    X84       CONSTR2   940
    X84       CONSTR3   948
    X84       CONSTR4   61
    X84       CONSTR5   515
    X85       OBJ       768
    X85       CONSTR1   521
    X85       CONSTR2   892
    X85       CONSTR3   360
    X85       CONSTR4   919
    X85       CONSTR5   791
    X86       OBJ       889
    X86       CONSTR1   245
    X86       CONSTR2   624
    X86       CONSTR3   280
    X86       CONSTR4   876
    X86       CONSTR5   994
    X87       OBJ       746
    X87       CONSTR1   419
    X87       CONSTR2   379
    X87       CONSTR3   541
    X87       CONSTR4   185
    X87       CONSTR5   999
    X88       OBJ       1093
    X88       CONSTR1   67
    X88       CONSTR2   932
    X88       CONSTR3   994
    X88       CONSTR4   827
    X88       CONSTR5   366
    X89       OBJ       873
    X89       CONSTR1   467
    X89       CONSTR2   193
    X89       CONSTR3   324
    X89       CONSTR4   470
    X89       CONSTR5   777
    X90       OBJ       711
    X90       CONSTR1   299
    X90       CONSTR2   4
    X90       CONSTR3   506
    X90       CONSTR4   73
    X90       CONSTR5   927
    X91       OBJ       912
    X91       CONSTR1   214
    X91       CONSTR2   542
    X91       CONSTR3   943
    X91       CONSTR4   207
    X91       CONSTR5   744
    X92       OBJ       541
    X92       CONSTR1   341
    X92       CONSTR2   5
    X92       CONSTR3   355
    X92       CONSTR4   469
    X92       CONSTR5   651
    X93       OBJ       565
    X93       CONSTR1   792
    X93       CONSTR2   13
    X93       CONSTR3   368
    X93       CONSTR4   96
    X93       CONSTR5   974
    X94       OBJ       411
    X94       CONSTR1   154
    X94       CONSTR2   5
    X94       CONSTR3   152
    X94       CONSTR4   511
    X94       CONSTR5   989
    X95       OBJ       580
    X95       CONSTR1   357
    X95       CONSTR2   234
    X95       CONSTR3   76
    X95       CONSTR4   817
    X95       CONSTR5   731
    X96       OBJ       869
    X96       CONSTR1   190
    X96       CONSTR2   724
    X96       CONSTR3   960
    X96       CONSTR4   968
    X96       CONSTR5   479
    X97       OBJ       882
    X97       CONSTR1   410
    X97       CONSTR2   380
    X97       CONSTR3   728
    X97       CONSTR4   237
    X97       CONSTR5   335
    X98       OBJ       750
    X98       CONSTR1   677
    X98       CONSTR2   519
    X98       CONSTR3   762
    X98       CONSTR4   887
    X98       CONSTR5   451
    X99       OBJ       925
    X99       CONSTR1   555
    X99       CONSTR2   893
    X99       CONSTR3   919
    X99       CONSTR4   821
    X99       CONSTR5   881
    X100      OBJ       799
    X100      CONSTR1   318
    X100      CONSTR2   935
    X100      CONSTR3   52
    X100      CONSTR4   717
    X100      CONSTR5   563
    INT0001   'MARKER'  'INTEND'
RHS
    RHS10001  CONSTR1   23272
    RHS10001  CONSTR2   24350
    RHS10001  CONSTR3   22882
    RHS10001  CONSTR4   27454
    RHS10001  CONSTR5   26191
BOUNDS
 BV BND       X1        .00
 BV BND       X2        .00
 BV BND       X3        .00
 BV BND       X4        .00
 BV BND       X5        .00
 BV BND       X6        .00
 BV BND       X7        .00
 BV BND       X8        .00
 BV BND       X9        .00
 BV BND       X10       .00
 BV BND       X11       .00
 BV BND       X12       .00
 BV BND       X13       .00
 BV BND       X14       .00
 BV BND       X15       .00
 BV BND       X16       .00
 BV BND       X17       .00
 BV BND       X18       .00
 BV BND       X19       .00
 BV BND       X20       .00
 BV BND       X21       .00
 BV BND       X22       .00
 BV BND       X23       .00
 BV BND       X24       .00
 BV BND       X25       .00
 BV BND       X26       .00
 BV BND       X27       .00
 BV BND       X28       .00
 BV BND       X29       .00
 BV BND       X30       .00
 BV BND       X31       .00
 BV BND       X32       .00
 BV BND       X33       .00
 BV BND       X34       .00
 BV BND       X35       .00
 BV BND       X36       .00
 BV BND       X37       .00
 BV BND       X38       .00
 BV BND       X39       .00
 BV BND       X40       .00
 BV BND       X41       .00
 BV BND       X42       .00
 BV BND       X43       .00
 BV BND       X44       .00
 BV BND       X45       .00
 BV BND       X46       .00
 BV BND       X47       .00
 BV BND       X48       .00
 BV BND       X49       .00
 BV BND       X50       .00
 BV BND       X51       .00
 BV BND       X52       .00
 BV BND       X53       .00
 BV BND       X54       .00
 BV BND       X55       .00
 BV BND       X56       .00
 BV BND       X57       .00
 BV BND       X58       .00
 BV BND       X59       .00
 BV BND       X60       .00
 BV BND       X61       .00
 BV BND       X62       .00
 BV BND       X63       .00
 BV BND       X64       .00
 BV BND       X65       .00
 BV BND       X66       .00
 BV BND       X67       .00
 BV BND       X68       .00
 BV BND       X69       .00
 BV BND       X70       .00
 BV BND       X71       .00
 BV BND       X72       .00
 BV BND       X73       .00
 BV BND       X74       .00
 BV BND       X75       .00
 BV BND       X76       .00
 BV BND       X77       .00
 BV BND       X78       .00
 BV BND       X79       .00
 BV BND       X80       .00
 BV BND       X81       .00
 BV BND       X82       .00
 BV BND       X83       .00
 BV BND       X84       .00
 BV BND       X85       .00
 BV BND       X86       .00
 BV BND       X87       .00
 BV BND       X88       .00
 BV BND       X89       .00
 BV BND       X90       .00
 BV BND       X91       .00
 BV BND       X92       .00
 BV BND       X93       .00
 BV BND       X94       .00
 BV BND       X95       .00
 BV BND       X96       .00
 BV BND       X97       .00
 BV BND       X98       .00
 BV BND       X99       .00
 BV BND       X100      .00
ENDATA
